letting n =  10
letting blocks =  [[1, 7], [2, 1], [2, 4], [4, 5], [4, 7], [4, 8], [4, 10], [6, 2], [6, 6], [7, 1], [7, 3], [7, 10], [8, 6], [8, 10], [9, 2], [9, 6], [9, 9], [10, 7], [10, 9], [10, 10]]
